371
142
45
160
0
19
165
0
143
120
81
132
424
0
33
50
81
75
22
25
87
365
132
16
46
296
43
155
99
48
99
24
86
59
0
23
46
29
107
47
15
79
42
40
155
60
16
240
167
53
111
45
92
45
78
618
116
519
403
16
51
140
207
669
70
257
37
68
85
34
33
46
22
116
32
288
28
63
56
0
27
79
14
0
199
70
23
610
327
207
87
18
82
14
119
73
345
160
217
104
